#p gfinput HF/6-311+G*

H2O

0 1
O
H 1 0.94
H 1 0.94 2 104.5

