#p gfinput HF/6-311+G*

H2S

0 1
S
H 1 0.94
H 1 0.94 2 104.5

